c Instancia generada aleatoriamente
p edge 30 217
e 1 2
e 1 5
e 1 7
e 1 8
e 1 9
e 1 16
e 1 17
e 1 20
e 1 22
e 1 23
e 1 24
e 1 27
e 1 28
e 2 3
e 2 4
e 2 9
e 2 12
e 2 16
e 2 17
e 2 18
e 2 21
e 2 22
e 2 23
e 2 26
e 2 27
e 2 28
e 2 30
e 3 9
e 3 10
e 3 11
e 3 13
e 3 15
e 3 16
e 3 17
e 3 18
e 3 20
e 3 22
e 3 23
e 3 24
e 3 25
e 3 26
e 3 30
e 4 5
e 4 6
e 4 8
e 4 9
e 4 12
e 4 14
e 4 17
e 4 18
e 4 21
e 4 24
e 4 25
e 4 26
e 4 30
e 5 9
e 5 13
e 5 14
e 5 19
e 5 20
e 5 21
e 5 22
e 5 23
e 5 24
e 5 25
e 5 26
e 5 30
e 6 7
e 6 11
e 6 12
e 6 14
e 6 16
e 6 17
e 6 18
e 6 23
e 6 26
e 6 28
e 6 30
e 7 8
e 7 9
e 7 10
e 7 13
e 7 17
e 7 18
e 7 20
e 7 22
e 7 26
e 7 27
e 7 29
e 7 30
e 8 9
e 8 12
e 8 14
e 8 18
e 8 20
e 8 24
e 8 26
e 8 28
e 8 30
e 9 11
e 9 13
e 9 14
e 9 15
e 9 16
e 9 19
e 9 21
e 9 24
e 9 25
e 9 27
e 9 30
e 10 11
e 10 13
e 10 14
e 10 21
e 10 23
e 10 24
e 10 26
e 10 27
e 11 15
e 11 18
e 11 20
e 11 22
e 11 25
e 11 27
e 11 28
e 11 29
e 11 30
e 12 13
e 12 17
e 12 18
e 12 20
e 12 21
e 12 23
e 12 24
e 12 26
e 12 28
e 12 30
e 13 14
e 13 15
e 13 16
e 13 17
e 13 19
e 13 20
e 13 22
e 13 25
e 13 26
e 13 28
e 13 30
e 14 15
e 14 17
e 14 18
e 14 19
e 14 20
e 14 22
e 14 25
e 14 29
e 15 16
e 15 18
e 15 21
e 15 23
e 15 26
e 15 27
e 15 28
e 16 17
e 16 18
e 16 19
e 16 21
e 16 23
e 16 24
e 16 27
e 16 29
e 16 30
e 17 18
e 17 20
e 17 21
e 17 22
e 17 23
e 17 27
e 17 29
e 17 30
e 18 19
e 18 20
e 18 22
e 18 23
e 18 27
e 18 30
e 19 20
e 19 22
e 19 23
e 19 24
e 19 25
e 19 28
e 19 29
e 20 29
e 20 30
e 21 22
e 21 23
e 21 26
e 21 27
e 22 24
e 22 25
e 22 26
e 23 25
e 23 26
e 23 27
e 23 29
e 24 25
e 24 26
e 24 27
e 24 28
e 24 30
e 25 30
e 26 28
e 26 29
e 28 29
e 28 30
e 29 30
